SECTION Graph
Nodes 233
Edges 431
E 1 6 25
E 1 209 1
E 1 210 1
E 1 211 5
E 2 211 6
E 3 209 5
E 3 211 1
E 4 210 5
E 4 211 1
E 5 199 12
E 5 202 1
E 5 203 1
E 5 205 5
E 6 205 6
E 6 207 1
E 6 208 1
E 7 202 5
E 7 205 1
E 7 207 6
E 8 203 5
E 8 205 1
E 8 208 6
E 9 10 5
E 9 201 1
E 9 204 9
E 10 206 9
E 11 200 15
E 11 201 9
E 11 204 1
E 12 206 1
E 13 69 1
E 13 176 11
E 13 182 1
E 13 183 6
E 14 69 1
E 14 180 5
E 14 185 6
E 14 188 16
E 15 185 9
E 15 189 1
E 16 182 6
E 16 183 1
E 17 181 11
E 17 185 1
E 17 189 9
E 17 192 15
E 18 19 5
E 18 24 1
E 18 149 1
E 18 161 9
E 19 25 1
E 19 159 1
E 19 168 9
E 20 168 6
E 20 174 1
E 21 149 9
E 21 161 1
E 22 159 9
E 22 168 1
E 22 174 6
E 22 175 7
E 23 142 1
E 23 146 6
E 24 25 5
E 24 143 9
E 24 147 1
E 25 146 9
E 25 156 1
E 26 143 1
E 26 147 9
E 27 142 6
E 27 146 1
E 27 153 7
E 27 156 9
E 28 33 7
E 28 148 1
E 28 151 1
E 28 157 6
E 29 157 5
E 29 162 1
E 29 190 42
E 30 148 6
E 30 157 1
E 30 162 5
E 31 151 6
E 31 157 1
E 31 186 36
E 32 129 43
E 32 138 1
E 32 140 1
E 32 141 5
E 33 141 6
E 33 144 1
E 33 145 1
E 34 134 17
E 34 138 5
E 34 141 1
E 34 144 6
E 35 140 5
E 35 141 1
E 35 145 6
E 36 119 5
E 36 125 1
E 36 127 1
E 36 131 6
E 37 131 5
E 37 133 1
E 38 125 6
E 38 128 4
E 38 131 1
E 38 133 5
E 39 127 6
E 39 131 1
E 40 96 4
E 40 98 1
E 40 100 4
E 40 111 10
E 41 110 4
E 41 111 3
E 41 118 4
E 41 120 5
E 42 49 7
E 42 78 6
E 42 79 1
E 42 88 10
E 43 88 3
E 43 90 1
E 43 134 64
E 44 45 10
E 44 105 1
E 44 106 1
E 45 117 1
E 46 56 5
E 46 89 3
E 46 94 1
E 46 98 6
E 47 48 10
E 47 49 7
E 47 89 1
E 47 94 3
E 48 50 7
E 48 101 3
E 48 102 3
E 49 50 10
E 49 84 1
E 50 88 7
E 50 97 3
E 51 59 5
E 51 75 3
E 51 78 1
E 51 79 6
E 52 53 10
E 52 75 1
E 52 78 3
E 53 82 3
E 54 55 10
E 54 64 7
E 54 76 3
E 54 80 3
E 55 65 7
E 55 86 1
E 55 87 3
E 56 86 3
E 56 87 1
E 56 93 6
E 57 58 10
E 57 70 3
E 58 72 1
E 58 74 3
E 59 72 3
E 59 74 1
E 59 77 6
E 60 83 7
E 60 91 2
E 61 63 7
E 61 91 8
E 61 99 1
E 62 76 9
E 62 83 3
E 63 85 8
E 63 87 6
E 63 93 1
E 64 65 10
E 64 71 7
E 64 73 3
E 65 67 7
E 65 81 1
E 66 71 3
E 66 73 7
E 67 71 10
E 67 74 6
E 67 77 1
E 68 91 188
E 69 177 11
E 69 184 6
E 70 71 6
E 70 74 10
E 72 75 5
E 73 76 7
E 77 79 5
E 77 81 7
E 78 82 10
E 79 84 7
E 80 83 6
E 80 87 10
E 81 84 5
E 81 86 7
E 82 88 6
E 83 85 2
E 84 89 7
E 85 91 7
E 86 89 5
E 90 92 1
E 90 136 70
E 92 97 5
E 92 137 70
E 93 98 5
E 93 99 7
E 94 95 1
E 94 101 10
E 95 96 1
E 95 104 10
E 96 107 10
E 97 102 7
E 97 139 70
E 98 105 7
E 99 105 5
E 100 103 1
E 100 114 10
E 101 104 1
E 101 108 3
E 102 108 3
E 103 106 1
E 103 116 10
E 104 107 1
E 104 109 3
E 106 117 10
E 107 110 3
E 107 111 4
E 108 109 1
E 108 112 5
E 109 110 1
E 109 113 5
E 110 115 5
E 111 114 4
E 112 113 1
E 112 121 6
E 113 115 1
E 113 123 6
E 114 116 1
E 114 118 3
E 115 120 4
E 115 124 6
E 116 117 1
E 116 119 3
E 117 122 3
E 118 119 1
E 118 125 5
E 119 122 1
E 120 125 4
E 120 128 6
E 121 123 1
E 121 126 5
E 122 127 5
E 123 124 1
E 123 129 5
E 124 128 4
E 124 130 5
E 126 129 1
E 126 138 43
E 128 132 5
E 129 130 1
E 130 132 4
E 130 140 43
E 132 133 4
E 134 135 6
E 135 136 1
E 135 155 30
E 136 137 1
E 136 150 24
E 137 139 5
E 137 152 24
E 139 144 10
E 142 150 10
E 143 146 5
E 144 148 7
E 145 151 7
E 147 149 1
E 150 152 1
E 150 158 6
E 152 160 6
E 152 162 21
E 153 154 1
E 153 163 9
E 154 155 1
E 154 164 9
E 155 158 1
E 155 166 9
E 156 159 1
E 156 163 7
E 158 160 1
E 158 169 9
E 159 165 7
E 160 171 9
E 161 168 5
E 162 188 42
E 163 164 1
E 163 165 1
E 164 166 1
E 164 167 1
E 165 167 1
E 165 175 9
E 166 169 1
E 166 170 1
E 167 170 1
E 167 176 9
E 169 171 1
E 169 172 1
E 170 172 1
E 170 177 9
E 171 173 1
E 172 173 1
E 172 178 9
E 173 179 9
E 174 180 10
E 174 182 12
E 175 176 1
E 175 182 11
E 176 177 1
E 177 178 1
E 178 179 1
E 178 180 6
E 179 181 6
E 179 186 17
E 180 181 1
E 181 187 17
E 183 184 1
E 184 185 1
E 186 187 6
E 187 191 5
E 188 190 1
E 188 192 6
E 189 195 18
E 190 191 1
E 190 193 6
E 191 194 6
E 192 193 1
E 193 194 1
E 194 195 10
E 195 196 1
E 195 198 9
E 196 197 1
E 196 199 9
E 197 200 9
E 197 201 15
E 198 199 1
E 198 202 12
E 199 200 1
E 200 203 12
E 204 206 5
E 207 209 25
E 208 210 25
E 1 212 100000
E 2 212 100000
E 3 212 100000
E 4 212 100000
E 5 213 100000
E 6 213 100000
E 7 213 100000
E 8 213 100000
E 9 214 100000
E 10 214 100000
E 11 214 100000
E 12 214 100000
E 13 215 100000
E 14 215 100000
E 15 215 100000
E 16 215 100000
E 17 215 100000
E 18 216 100000
E 19 216 100000
E 20 216 100000
E 21 216 100000
E 22 216 100000
E 23 217 100000
E 24 217 100000
E 25 217 100000
E 26 217 100000
E 27 217 100000
E 28 218 100000
E 29 218 100000
E 30 218 100000
E 31 218 100000
E 32 219 100000
E 33 219 100000
E 34 219 100000
E 35 219 100000
E 36 220 100000
E 37 220 100000
E 38 220 100000
E 39 220 100000
E 40 221 100000
E 41 221 100000
E 42 222 100000
E 43 222 100000
E 44 223 100000
E 45 223 100000
E 46 224 100000
E 47 224 100000
E 48 224 100000
E 49 225 100000
E 50 225 100000
E 51 226 100000
E 52 226 100000
E 53 226 100000
E 54 227 100000
E 55 227 100000
E 56 227 100000
E 57 228 100000
E 58 228 100000
E 59 228 100000
E 60 229 100000
E 61 229 100000
E 62 230 100000
E 63 230 100000
E 64 231 100000
E 65 231 100000
E 66 232 100000
E 67 232 100000
E 68 233 100000
E 69 215 100000
END

SECTION Terminals
Terminals 22
T 212
T 213
T 214
T 215
T 216
T 217
T 218
T 219
T 220
T 221
T 222
T 223
T 224
T 225
T 226
T 227
T 228
T 229
T 230
T 231
T 232
T 233
END

EOF
